column=6;
row=6;
max=4;
left=[0, 1, 3, 0, 4, 0];
right=[4, 0, 2, 2, 0, 0];
top=[0, 3, 0, 4, 0, 4];
bottom=[4, 2, 4, 0, 3, 3];
Board=[|2,0,0,0,0,0|0,3,2,0,4,0|3,0,0,0,0,2|4,0,1,0,2,0|0,0,0,0,3,1|0,0,0,0,0,0|]